row=10;
column=10;
colour = 10;
Board=[|4,4,3,3,3,3,3,3,3,3|4,4,4,4,4,4,9,9,9,8|4,4,4,4,4,4,9,8,8,8|4,4,4,4,4,4,9,9,9,8|4,1,4,4,4,5,9,9,9,5|1,1,6,6,6,5,5,5,5,5|1,1,1,6,6,6,6,5,5,5|7,1,1,6,6,6,6,5,5,5|7,7,2,2,2,6,2,5,5,5|10,10,2,2,2,2,2,5,5,5|];
